p cnf 10 24
1 5 0
-8 2 0
9 -10 0
10 5 0
-7 1 0
2 4 0
9 5 0
-7 5 -3 0
-8 9 0
2 6 -9 -7 10 0
1 -6 4 9 10 -3 0
1 -9 4 6 7 8 0
3 4 -10 8 -1 0
1 -9 4 -10 7 8 0
4 5 -10 7 -6 0
-4 -2 0
6 9 10 -7 -3 0
3 6 -9 0
3 2 -5 0
9 10 2 7 0
2 -10 -9 -6 -3 0
10 5 0
-8 -7 0
1 2 0
